Route #1: 27 6 55 50 14 61 36 66 28 17 48 58 49 38 47 9 18 23 31 22 63 67 46 44 8 35 13 10 21 53 62 52 42 60 3 45 15
Route #2: 24 51 20 39 56 40 11 7 19 68 25 29 59 43 33
Route #3: 1 64 41 54 4 12 26 30 37 32 34 5 16 2 57 65
Route #4: 
Route #5: 
Route #6: 
Route #7: 
Route #8: 
Route #9: 
cost 1536.8909551019726
